p cnf 89 119
-1 84 -85 -86 -23 -83 0 
-2 9 10 40 50 56 71 85 -86 0 
-3 4 11 25 30 36 70 73 85 -86 0 
-4 3 11 25 30 36 70 73 85 -86 0 
-5 67 85 -86 0 
-6 -7 86 -85 0 
-8 84 -85 -86 -23 -83 0 
-9 2 10 40 50 56 71 84 -85 -86 -23 -83 0 
-10 2 9 40 50 56 71 84 -85 -86 -23 -83 0 
-11 3 4 25 30 36 70 73 84 -85 -86 -23 -83 0 
-5 67 84 -85 -86 -23 -83 0 
-12 52 78 87 -89 0 
-11 3 4 25 30 36 70 73 85 -86 0 
-2 9 10 40 50 56 71 84 -85 -86 -23 -83 0 
-13 -12 52 78 87 -89 0 
-14 -12 52 78 87 -89 0 
-10 2 9 40 50 56 71 85 -86 0 
-15 42 85 -86 0 
-8 87 -89 0 
-16 86 -85 0 
-17 27 -12 52 78 87 -89 0 
-18 19 61 74 80 85 -86 0 
-9 2 10 40 50 56 71 85 -86 0 
-19 18 61 74 80 85 -86 0 
-20 21 31 39 60 63 66 79 84 -85 -86 -23 -83 0 
-20 21 31 39 60 63 66 79 85 -86 0 
-21 20 31 39 60 63 66 79 85 -86 0 
-22 86 -85 0 
-18 19 61 74 80 84 -85 -86 -23 -83 0 
-23 83 88 -85 -86 -17 -27 0 
-24 85 -86 0 
-3 4 11 25 30 36 70 73 84 -85 -86 -23 -83 0 
-25 3 4 11 30 36 70 73 85 -86 0 
-26 88 -85 -86 -17 -27 0 
-27 17 85 -86 0 
-24 88 -85 -86 -17 -27 0 
-28 -29 85 -86 0 
-30 3 4 11 25 36 70 73 88 -85 -86 -17 -27 0 
-31 20 21 39 60 63 66 79 85 -86 0 
-28 85 -86 0 
-32 88 -85 -86 -17 -27 0 
-26 85 -86 0 
-23 83 85 -86 0 
-32 85 -86 0 
-33 88 -85 -86 -17 -27 0 
-34 86 -85 0 
-35 85 -86 0 
-36 3 4 11 25 30 70 73 84 -85 -86 -23 -83 0 
-35 88 -85 -86 -17 -27 0 
-37 57 -8 84 -85 -86 -23 -83 0 
-38 88 -85 -86 -17 -27 0 
-39 20 21 31 60 63 66 79 85 -86 0 
-40 2 9 10 50 56 71 84 -85 -86 -23 -83 0 
-38 85 -86 0 
-33 85 -86 0 
-41 88 -85 -86 -17 -27 0 
-42 15 84 -85 -86 -23 -83 0 
-43 44 55 84 -85 -86 -23 -83 0 
-44 43 55 84 -85 -86 -23 -83 0 
-45 84 -85 -86 -23 -83 0 
-46 -47 -48 84 -85 -86 -23 -83 0 
-15 42 84 -85 -86 -23 -83 0 
-49 75 88 -85 -86 -17 -27 0 
-50 2 9 10 40 56 71 88 -85 -86 -17 -27 0 
-9 2 10 40 50 56 71 -51 84 -85 -86 -23 -83 0 
-4 3 11 25 30 36 70 73 -51 84 -85 -86 -23 -83 0 
-52 12 78 -53 84 -85 -86 -23 -83 0 
-52 12 78 85 -86 0 
-4 3 11 25 30 36 70 73 -54 85 -86 0 
-55 43 44 -56 2 9 10 40 50 71 -25 3 4 11 30 36 70 73 85 -86 0 
-57 37 88 -85 -86 -17 -27 0 
-8 -58 84 -85 -86 -23 -83 0 
-51 85 -86 0 
-51 84 -85 -86 -23 -83 0 
-7 -59 64 86 -85 0 
-60 20 21 31 39 63 66 79 85 -86 0 
-61 18 19 74 80 85 -86 0 
-13 -52 12 78 -53 -29 84 -85 -86 -23 -83 0 
-62 89 -87 0 
-63 20 21 31 39 60 66 79 84 -85 -86 -23 -83 0 
-7 -64 59 -59 64 86 -85 0 
-8 -37 57 -7 84 -85 -86 -23 -83 0 
-18 19 61 74 80 84 -85 -86 -23 -83 0 
-7 86 -85 0 
-20 21 31 39 60 63 66 79 84 -85 -86 -23 -83 0 
-65 86 -85 0 
-66 20 21 31 39 60 63 79 85 -86 0 
-56 2 9 10 40 50 71 88 -85 -86 -17 -27 0 
-4 3 11 25 30 36 70 73 -28 85 -86 0 
-8 -37 57 -4 3 11 25 30 36 70 73 85 -86 0 
-67 5 84 -85 -86 -23 -83 0 
-55 43 44 -37 57 -30 3 4 11 25 36 70 73 85 -86 0 
-55 43 44 86 -85 0 
-68 86 -85 0 
-13 -69 84 -85 -86 -23 -83 0 
-70 3 4 11 25 30 36 73 86 -85 0 
-71 2 9 10 40 50 56 86 -85 0 
-17 27 -52 12 78 84 -85 -86 -23 -83 0 
-72 -7 86 -85 0 
-73 3 4 11 25 30 36 70 86 -85 0 
-66 20 21 31 39 60 63 79 85 -86 0 
-74 18 19 61 80 85 -86 0 
-4 3 11 25 30 36 70 73 -64 59 -51 84 -85 -86 -23 -83 0 
-9 2 10 40 50 56 71 -64 59 -51 84 -85 -86 -23 -83 0 
-8 -64 59 -59 64 84 -85 -86 -23 -83 0 
-64 59 -51 85 -86 0 
-64 59 -51 84 -85 -86 -23 -83 0 
-13 84 -85 -86 -23 -83 0 
-75 49 84 -85 -86 -23 -83 0 
-76 84 -85 -86 -23 -83 0 
-68 84 -85 -86 -23 -83 0 
-55 43 44 84 -85 -86 -23 -83 0 
-4 3 11 25 30 36 70 73 -77 -64 59 -78 12 52 84 -85 -86 -23 -83 0 
-79 20 21 31 39 60 63 66 84 -85 -86 -23 -83 0 
-4 3 11 25 30 36 70 73 -53 84 -85 -86 -23 -83 0 
-80 18 19 61 74 84 -85 -86 -23 -83 0 
-8 -81 -82 84 -85 -86 -23 -83 0 
-17 27 87 -89 0 
-83 23 -12 52 78 87 -89 0 
